scratch/atail-force/exact6-allcenter-coverage-certificate/smoke.cnf
c schema p97-exact6-allcenter-coverage-cnf-v1
c profile smoke
c orbit None
c bank_sha256 dcc70ee44912c54ef9d9b369a06fa11dedd08c9bb2976fa8a5ffa80840d43bbe
p cnf 25 43
-1 0
2 0
3 0
4 0
5 0
-7 0
6 0
8 0
9 0
10 0
-13 0
11 0
12 0
14 0
15 0
-19 0
16 0
17 0
18 0
20 0
-25 0
21 0
22 0
23 0
24 0
-2 -3 -8 -9 -22 -24 0
-2 -3 -8 -10 -17 -20 0
-2 -3 -16 -18 -21 -22 0
-2 -4 -11 -14 -21 -22 0
-2 -4 -14 -15 -17 -20 0
-2 -4 -17 -18 -23 -24 0
-3 -5 -6 -10 -16 -18 0
-3 -5 -12 -15 -17 -18 0
-4 -5 -6 -10 -11 -14 0
-4 -5 -8 -10 -23 -24 0
-4 -5 -12 -15 -22 -24 0
-6 -9 -11 -12 -22 -24 0
-6 -9 -14 -15 -16 -20 0
-6 -9 -16 -18 -23 -24 0
-6 -10 -11 -12 -17 -20 0
-8 -9 -11 -14 -21 -23 0
-8 -10 -16 -20 -21 -23 0
-12 -15 -16 -20 -21 -22 0
